Cost: 373
0-27-1-28-31-8-7-23-6-0
0-11-38-16-29-20-35-36-3-22-32-0
0-5-9-34-30-10-39-33-15-37-0
0-18-13-25-14-0
Cost: 373
0-6-23-7-8-31-28-1-27-0
0-14-25-13-18-0
0-32-22-3-36-35-20-29-16-38-11-0
0-5-9-34-30-10-39-33-15-37-0
Cost: 373
0-27-1-28-31-8-7-23-6-0
0-11-38-16-29-20-35-36-3-22-32-0
0-5-9-34-30-10-39-33-15-37-0
0-18-13-25-14-0
Cost: 373
0-37-15-33-39-10-30-34-9-5-0
0-27-1-28-31-8-7-23-6-0
0-14-25-13-18-0
0-32-22-3-36-35-20-29-16-38-11-0
Cost: 373
0-6-23-7-8-31-28-1-27-0
0-14-25-13-18-0
0-32-22-3-36-35-20-29-16-38-11-0
0-37-15-33-39-10-30-34-9-5-0
Cost: 373
0-6-23-7-8-31-28-1-27-0
0-14-25-13-18-0
0-32-22-3-36-35-20-29-16-38-11-0
0-37-15-33-39-10-30-34-9-5-0
Cost: 373
0-18-13-25-14-0
0-32-22-3-36-35-20-29-16-38-11-0
0-37-15-33-39-10-30-34-9-5-0
0-27-1-28-31-8-7-23-6-0
Cost: 373
0-18-13-25-14-0
0-32-22-3-36-35-20-29-16-38-11-0
0-37-15-33-39-10-30-34-9-5-0
0-27-1-28-31-8-7-23-6-0
Cost: 373
0-18-13-25-14-0
0-32-22-3-36-35-20-29-16-38-11-0
0-37-15-33-39-10-30-34-9-5-0
0-27-1-28-31-8-7-23-6-0
Cost: 373
0-18-13-25-14-0
0-32-22-3-36-35-20-29-16-38-11-0
0-37-15-33-39-10-30-34-9-5-0
0-27-1-28-31-8-7-23-6-0
Cost: 373
0-5-9-34-30-10-39-33-15-37-0
0-27-1-28-31-8-7-23-6-0
0-14-25-13-18-0
0-11-38-16-29-20-35-36-3-22-32-0
Cost: 373
0-5-9-34-30-10-39-33-15-37-0
0-27-1-28-31-8-7-23-6-0
0-14-25-13-18-0
0-11-38-16-29-20-35-36-3-22-32-0
Cost: 373
0-5-9-34-30-10-39-33-15-37-0
0-27-1-28-31-8-7-23-6-0
0-14-25-13-18-0
0-11-38-16-29-20-35-36-3-22-32-0
Cost: 373
0-18-13-25-14-0
0-6-23-7-8-31-28-1-27-0
0-5-9-34-30-10-39-33-15-37-0
0-32-22-3-36-35-20-29-16-38-11-0
Cost: 373
0-5-9-34-30-10-39-33-15-37-0
0-27-1-28-31-8-7-23-6-0
0-14-25-13-18-0
0-11-38-16-29-20-35-36-3-22-32-0
Cost: 373
0-5-9-34-30-10-39-33-15-37-0
0-27-1-28-31-8-7-23-6-0
0-14-25-13-18-0
0-11-38-16-29-20-35-36-3-22-32-0
Cost: 373
0-5-9-34-30-10-39-33-15-37-0
0-27-1-28-31-8-7-23-6-0
0-14-25-13-18-0
0-11-38-16-29-20-35-36-3-22-32-0
Cost: 373
0-18-13-25-14-0
0-11-38-16-29-20-35-36-3-22-32-0
0-37-15-33-39-10-30-34-9-5-0
0-6-23-7-8-31-28-1-27-0
Cost: 373
0-11-38-16-29-20-35-36-3-22-32-0
0-5-9-34-30-10-39-33-15-37-0
0-6-23-7-8-31-28-1-27-0
0-14-25-13-18-0
Cost: 373
0-11-38-16-29-20-35-36-3-22-32-0
0-5-9-34-30-10-39-33-15-37-0
0-6-23-7-8-31-28-1-27-0
0-14-25-13-18-0
Cost: 373
0-27-1-28-31-8-7-23-6-0
0-32-22-3-36-35-20-29-16-38-11-0
0-37-15-33-39-10-30-34-9-5-0
0-18-13-25-14-0
Cost: 373
0-27-1-28-31-8-7-23-6-0
0-32-22-3-36-35-20-29-16-38-11-0
0-37-15-33-39-10-30-34-9-5-0
0-18-13-25-14-0
Cost: 373
0-5-9-34-30-10-39-33-15-37-0
0-6-23-7-8-31-28-1-27-0
0-11-38-16-29-20-35-36-3-22-32-0
0-14-25-13-18-0
Cost: 373
0-27-1-28-31-8-7-23-6-0
0-32-22-3-36-35-20-29-16-38-11-0
0-37-15-33-39-10-30-34-9-5-0
0-18-13-25-14-0
Cost: 373
0-18-13-25-14-0
0-11-38-16-29-20-35-36-3-22-32-0
0-37-15-33-39-10-30-34-9-5-0
0-6-23-7-8-31-28-1-27-0
Cost: 373
0-11-38-16-29-20-35-36-3-22-32-0
0-5-9-34-30-10-39-33-15-37-0
0-6-23-7-8-31-28-1-27-0
0-14-25-13-18-0
Cost: 373
0-6-23-7-8-31-28-1-27-0
0-32-22-3-36-35-20-29-16-38-11-0
0-14-25-13-18-0
0-37-15-33-39-10-30-34-9-5-0
Cost: 373
0-32-22-3-36-35-20-29-16-38-11-0
0-37-15-33-39-10-30-34-9-5-0
0-14-25-13-18-0
0-6-23-7-8-31-28-1-27-0
Cost: 373
0-32-22-3-36-35-20-29-16-38-11-0
0-14-25-13-18-0
0-5-9-34-30-10-39-33-15-37-0
0-6-23-7-8-31-28-1-27-0
Cost: 373
0-18-13-25-14-0
0-37-15-33-39-10-30-34-9-5-0
0-32-22-3-36-35-20-29-16-38-11-0
0-27-1-28-31-8-7-23-6-0
Cost: 373
0-11-38-16-29-20-35-36-3-22-32-0
0-6-23-7-8-31-28-1-27-0
0-5-9-34-30-10-39-33-15-37-0
0-18-13-25-14-0
